NAME : ch130.tsp.opt.tour
TYPE : TOUR
Dimension: 130
TOUR_SECTION
54
1
41
39
71
130
50
2
118
80
46
20
35
4
42
44
40
47
37
22
23
122
55
60
51
120
53
49
58
106
38
79
95
116
24
15
29
89
94
110
98
68
63
70
97
26
7
88
69
64
86
124
129
61
109
76
11
5
45
16
128
105
62
112
117
3
114
108
8
18
21
33
93
126
30
59
121
78
90
125
85
66
28
115
83
13
67
96
14
10
102
6
91
72
92
73
99
74
75
52
9
57
56
65
103
77
81
12
87
100
27
19
31
17
34
104
107
127
43
48
25
32
113
36
84
119
111
123
101
82
